% File represents an instance of a Composite Structure problem to be solved by a CP framework
% Created on 2025-03-26 10:41:27.023
T = 50;
n = 16;
m = 24;
edges = [(1, 2),
(6, 5),
(10, 9),
(14, 13),
(2, 3),
(6, 7),
(11, 10),
(14, 15),
(3, 4),
(8, 7),
(11, 12),
(16, 15),
(1, 5),
(5, 9),
(13, 9),
(6, 2),
(6, 10),
(14, 10),
(3, 7),
(11, 7),
(11, 15),
(8, 4),
(8, 12),
(16, 12)];
counts = [|18, 4, 18, 10,
|16, 4, 16, 10,
|16, 2, 16, 10,
|16, 2, 16, 4,
|16, 2, 16, 10,
|16, 6, 16, 10,
|16, 2, 16, 8,
|16, 2, 16, 10,
|14, 2, 14, 8,
|16, 2, 16, 8,
|16, 6, 16, 8,
|16, 2, 16, 6,
|14, 2, 14, 10,
|16, 2, 16, 12,
|16, 2, 16, 6,
|16, 2, 16, 8|];
